50
energy: -165.875300501210 gnorm: 0.000928596286 xtb: 6.7.1 (edcfbbe)
N      2.0634183514   -0.0295290590   -0.8473357591
N      1.2831417749    0.2927828542   -2.0298707960
O      0.1833485250   -0.2857397276   -1.6378348853
O      1.4664400920    0.8993894164   -3.1671191402
N      2.8179491477   -1.2754866357   -0.8056446904
N      2.3322162749   -2.3316438390    0.0684474269
O      2.5524600270   -2.2553884792    1.3515653245
O      1.8380672630   -3.3597807478   -0.5610383200
N      4.2532165212   -1.2135941960   -1.0387583984
N      4.6613200992   -1.0166528521   -2.4283803564
O      4.5169505317    0.0917753141   -3.0989778471
O      5.1656267758   -2.1209032508   -2.9004518282
N      5.0674426746   -0.6531100378    0.0462556692
N      6.2483113337   -1.5101983771    0.2716834918
N      5.9777361610   -2.9490321320    0.2916035130
O      6.7542669203   -3.2721180239   -0.7038943384
O      5.3021293796   -3.7854968023    1.0283162409
N      7.1828373047   -1.0639176718    1.3153001442
N      7.1441099375   -1.7821046022    2.5855651157
O      7.6276373637   -2.9583409126    2.8733139982
O      6.7526130185   -0.8917730935    3.4511521117
C      8.5268606504   -0.7944098669    0.7749382903
N      9.4715317507   -1.8054320319    0.2682940840
N      9.6722906856   -0.9996151311   -0.9740122192
N     10.7598858075   -0.2436239234   -0.2945900924
N      9.7966732016    0.7761145182    0.2013676443
N      9.5930252814   -0.0293677438    1.4432339903
N     10.5599876014   -1.0397312454    0.9334680794
C      8.7298051096    0.0142761809   -0.4718726239
N      7.5951718906    0.5930871636   -1.2131458259
N      7.9336508558    1.2506569621   -2.4721579282
O      8.7495296454    2.2483666187   -2.6695014324
O      7.4488332340    0.4733514000   -3.3973156354
N      6.6611880960    1.2994362953   -0.3237278384
N      6.7628079229    2.7589352293   -0.4003813010
O      6.4305755678    3.7040596990   -1.2325083051
O      7.4305900192    2.9242026209    0.7072696453
N      5.2798420730    0.7782565503   -0.2769877579
N      4.5015206790    1.5511837521    0.6980746901
N      4.6719969676    1.2947142172    2.1265371121
O      5.3496778969    2.2543531036    2.6883742140
O      4.1385092592    0.2834163988    2.7523297412
N      3.1633114732    1.9477784087    0.2851737516
N      3.0724100159    3.0288513683   -0.6835700010
O      3.4277662573    2.9972730167   -1.9369038824
O      2.7278529038    4.0896277729   -0.0101388945
N      2.1346817527    0.9169923211    0.2554040209
N      1.0269078392    1.0034455828    1.1939058477
O      0.0937588222    1.8527448790    0.8676412215
O      1.1008103063    0.3475969975    2.3177064614