40
energy: -132.308705545393 gnorm: 0.000935135704 xtb: 6.7.1 (edcfbbe)
N      0.8853916771    0.5010980979   -0.5546093945
N      1.2067642157   -0.8459385280   -0.9383915886
N      1.3030904921   -1.2801219217    0.4221363778
N      2.7023443096   -1.0188040270    0.4166863502
N      2.4267580246    0.4409243670    0.8176343214
C      2.2677991864    0.8402604714   -0.6170596308
C      2.7920373768    2.1796385636   -1.2669038886
N      4.2927713262    2.1961284287   -1.1341723814
O      4.5686691561    2.0852146500    0.2099212052
O      4.7430575278    1.0238711002   -1.6974469057
N      2.3793356740    2.1877458346   -2.7319709819
N      2.8087426799    0.9917150592   -3.4169617539
O      3.5780242268    1.2430339745   -4.5140129676
O      1.7137948498    0.2528533068   -3.7600813958
N      2.3209667654    3.4556419536   -3.5009733056
N      1.2681231701    3.5929962051   -4.5245828263
O      0.0938506772    3.1020705444   -3.9785685641
O      1.5731523485    2.8110956752   -5.6140170725
N      3.4785936404    4.2570906645   -3.6978900997
N      4.5078834150    3.8293450782   -4.6100668118
O      4.7654648233    4.7581882922   -5.5827917694
O      5.6641914830    3.6394314510   -3.8674882974
N      3.6647874740    5.4797314038   -2.8987304466
N      3.0092566491    6.6822433185   -3.4668592131
O      1.6363037490    6.4335306514   -3.5240502725
O      3.4132638398    6.9220504373   -4.7541015260
N      3.3977341555    5.2935650491   -1.4351432375
N      3.8096867856    6.4127009674   -0.5606237530
O      5.1674354165    6.5977339531   -0.7246512075
O      3.1832729700    7.5760966928   -0.9720363836
N      2.1348404493    4.6708282624   -1.1201526901
N      0.9397801944    5.5160748233   -0.8893765601
O      0.9185580214    5.9468571834    0.4166408729
O     -0.1716341845    4.7103039044   -1.0736971893
N      2.1462570220    3.3328731509   -0.5117238439
N      2.4089582586    3.2664136154    0.9101776551
O      3.0347761641    4.3876622669    1.3851736315
O      1.2305798664    3.0664561436    1.5709987220
N      2.6018816642   -0.5482735174   -1.0445961727
N      1.0387884058    0.0744785133    0.8033250706