36
 energy: -108.520951808768 gnorm: 0.000980914655 xtb: 6.7.1 (edcfbbe)
N            3.38580085373051       -1.31277447804506       -0.70674247866278
O            2.35674649153040       -0.34211489209027       -0.55754301057785
N            2.64175132331182        0.74496367925112        0.18194929472799
N            3.72197569764158        1.04336978444953        0.59118826702330
O            4.83608956327296        0.26288026385915        0.30911726430064
C            4.64670163064466       -0.60592799215695       -0.78984540166230
N            5.70561598474421       -1.57545054402592       -0.89270461332153
O            6.98444245894844       -0.96069222159546       -0.91839679780469
N            7.58185157519747       -0.74427986939867        0.27728502608748
N            7.19596866767835       -1.22716467977840        1.30694111763205
O            6.11992532105961       -2.01791256100006        1.38985509916027
N            5.71491182198311       -2.57942609914894        0.05511198600125
N            4.50799389260676       -3.17259878397162        0.16303212043073
N            4.51252578228979       -4.49224543003606        0.22071133416596
O            2.43029768397134       -3.12413023171264        3.11186139145191
N            2.97267697150980       -2.15520784950374        2.67288622702969
N            3.38627575343586       -1.68697621509832        1.65792421811889
O            4.04237510714581       -6.11095449196518       -3.25348056315373
N            3.25984008669794       -5.99804633619468       -2.36294446485996
N            2.49017570859045       -6.78635311634122       -1.83930815094847
O            2.19410451318815       -8.51883931097811       -2.06318589119077
N            1.88691659118216       -9.12642020827172       -1.00370864903969
N            1.63694712616659       -8.66291063124097        0.08089136562898
O            1.69612632657255       -7.32477167376555        0.29673337733113
N            1.54717000362277       -6.47132745145342       -0.91502374815060
N            1.38270934459373       -5.17722421504195       -0.62913865890468
O           -0.08344692003275       -5.00944062035320       -0.40840753527109
N           -0.64860584309327       -3.91300720900698        0.01051751560125
N           -0.23892427287517       -2.86380173343073        0.40204107462111
O            0.99796697256116       -2.41666825614036        0.58531329838672
N            2.17043906293115       -3.14025566031342        0.07818080108923
C            3.32098647290894       -2.34309827517798        0.30406060803549
C            2.19203120955752       -4.54625503714724        0.41407995907361
N            3.49525515806753       -5.14211027204328        0.33574553118458
H            4.64511714151344       -0.03492044230685       -1.73149271202288
H            1.78801615974197       -4.76250867512221        1.42291086239028
