43
energy: -140.064980609136 gnorm: 0.000913911098 xtb: 6.7.1 (edcfbbe)
O      7.3796972226   -0.0011130041    1.4775570518
N      7.5115035169    1.1958037783    1.4634827872
F      3.1343031813   -0.7154975168    2.9661338680
N      6.6191023553    1.9217665324    0.7883102517
N      6.8653661847    3.2336876380    0.9616095033
F      7.8793998397    3.9571747246    1.6987355709
O      6.1161795767    4.0440899842    0.4636378407
O      2.0876836609    4.2626761553   -0.5544406609
N      3.0645534980    3.5536610965   -0.4436097818
F      4.0005869129    4.0261637116   -1.4376988099
N      3.0015015938    2.6088550202    0.5170992774
N      1.9232685184    2.4540125995    1.2911596540
F      0.7822441799    2.2472351131    2.1504989242
O      0.8538052350    1.8519766619    0.5989385427
O      0.4068053227    1.1667834431   -0.6207935102
N      1.6715588291    0.5379233640   -0.9241771412
N      2.1711602358    0.7393327717   -2.2838317928
O      1.5145552294   -0.1378271773   -2.9909948713
O      2.9495107706    1.6544551305   -2.7841309560
N      2.5798089121   -0.3410765969   -0.1724691280
N      2.4995696362   -1.7398693521   -0.5989658575
N      1.6183760710   -2.4620300048    0.3086272824
O      0.3320834674   -2.4697051625    0.0998388609
O      2.2606497624   -3.2155654185    1.1562367732
O      3.0442187918   -2.3921984350   -1.7611141530
O      4.4398439616   -2.6399183003   -1.3929417007
N      5.3760676230   -2.3280429126   -0.3408843682
N      5.9621789170   -2.9136031154    0.8629132721
O      5.7179620934   -3.0592138185    2.1342047849
O      6.7786248867   -3.6606067979    0.1723692409
N      5.9624119902   -1.0086914101   -0.5883000646
N      7.0329669292   -0.9733850920   -1.3899423774
N      3.8846915065   -0.6263633784    1.8965542245
O      2.6642963176   -0.6426614841    2.5093440563
O      4.9391793106   -0.3352877205    2.6973763977
O      7.3465850022    0.0973493204   -1.8597867872
C      5.0097900952    0.1364734551   -0.4378437431
C      3.8245649509    0.1306470709    0.5678335811
C      4.1052901570    1.6577360804    0.8160245638
C      5.3877582265    1.5865489959   -0.0437851680
H      4.5954243230    0.2568560569   -1.4386499524
H      5.3443717025    2.1935843442   -0.9512265212
H      4.4243292631    1.8356282113    1.8467988573