42
energy: -139.139227842527 gnorm: 0.000979139467 xtb: 6.7.1 (edcfbbe)
N      8.6155748908    0.4970248595   -0.7496484082
N      7.6677372575   -0.4425981199   -1.3375912457
O      6.2925489135   -0.6697697497   -1.7550060550
C      5.5489085379   -1.3910282366   -0.7249859597
N      5.4341034304   -0.5059804412    0.4863707373
O      4.6776823641    0.5442623867    0.3027909363
O      6.3676265707   -0.5988528605    1.3927924465
N      4.1582781999   -1.6467965107   -1.1620574509
N      3.4430698834   -2.4801835551   -0.1756599931
O      2.1151781932   -2.5310435766    0.4208296475
C      2.2134289322   -2.5698585587    1.8697138483
N      2.8397194957   -1.2846243895    2.3359683102
O      2.1986580675   -0.2251620603    1.9211629344
O      3.4915122355   -1.3307904585    3.4659925220
N      0.9018546730   -2.6282048144    2.5806560213
F     -0.3432213843   -2.0540543606    2.1116219816
N      0.8606711603   -3.1872457944    3.7433988324
F     -0.3776956324   -3.1174864873    4.4927635142
N      1.8591870659   -3.8110976198    4.2828034561
F      1.7025710700   -4.2815265034    5.6443094098
N      2.9502583264   -4.1043386867    3.6575195279
F      3.9469787191   -4.8221373914    4.4255183847
C      2.9819005079   -3.8847897105    2.1814715602
N      2.3896152221   -5.1687992013    1.6460461562
O      1.0947935794   -5.2336709082    1.4961395464
O      3.1658917786   -6.2132430466    1.7628857871
O      4.3033390560   -3.7441962467    1.5680300965
N      4.1812542821   -3.7321117276    0.1097099080
N      5.5378225345   -3.4376972864    0.6032078170
C      6.2610276925   -2.7744823899   -0.5111007853
N      6.2493520208   -3.7218510217   -1.6863416347
O      5.9944188258   -3.2353815821   -2.8702337228
O      6.8297041356   -4.8698338052   -1.4597190412
O      7.6642377598   -2.5147189221   -0.1953727593
N      8.2761743346   -1.7788095444   -1.2930258172
N      9.0495232118   -1.9622484878   -2.5178344816
O     10.2822309515   -1.8402388369   -2.1136619195
O      8.6807826575   -2.2843557714   -3.7254497298
O      8.9468797554    0.7996552681    0.4737410152
O      9.0927473303    1.0670016910   -1.8217222925
H      3.7547021155   -0.7228384412   -0.9889787329
H      5.9574097856   -4.3495666643    0.7573692877