48
 energy: -163.066212737558 gnorm: 0.000994280887 xtb: 6.7.1 (edcfbbe)
N            9.33573549627033        0.99760424816348       -0.68900397413966
C            8.50612898549564        1.47742117427054       -1.78598609360107
N            9.20868581063137        2.52770543369578       -2.67197018147301
O            9.08238018620110        3.65438564303589       -2.32462792797887
O            9.79940450153867        2.06306309912362       -3.59428629103391
N            7.60075668479757        0.59315625324861       -2.54877436005027
O            7.25909690467270        0.96821779941461       -3.62397128432565
O            7.30797009668007       -0.43485190546167       -1.97960315313964
N            8.28923849235750        1.91546002031554       -0.43953318060686
N            7.27577374826316        1.55156515584041        0.37534701867302
N            7.29926453781328        2.46001263763658        1.69219961443351
O            7.63212384602164        3.54782901193748        1.45723370497097
O            6.94396432429970        1.86228499035996        2.62454400994704
N            7.05465126873136        0.24831720690874        0.69193457964275
N            5.87073721347670       -0.32191286193350        0.17583225756922
N            4.71679460282898        0.06933778158220        0.68913799432755
F            4.82192663872726        0.03675677750453        2.27712613422220
N            3.72944607000013       -0.74431292757550        0.35595570520882
N            2.54574955784604       -0.25966046026638       -0.23211750473280
C            2.57215854772733       -0.16118194631532       -1.69158207170157
N            3.80522589706024        0.01633139547122       -2.53378744462482
O            3.69848325248840       -0.32229843662403       -3.66734864508622
O            4.73437493007411        0.54870502898725       -1.98070802130314
N            1.40688552499579        0.68639213630365       -2.25244809487074
O            1.74702828462672        1.58584375801818       -2.95702464110009
O            0.32731265500658        0.35601394442442       -1.89623261310439
N            2.09416488330045       -1.32636991505303       -1.03964367650906
N            2.89408351491768       -2.45063725162770       -0.92171859496561
F            2.05933141408561       -3.49112856175847       -0.56204191422980
C            3.89972512687139       -2.17189779896931        0.09179555886364
N            3.59042535400986       -2.92465194319398        1.33359451853242
F            4.52331303742044       -2.57247282871165        2.27503137020158
F            3.82535477120006       -4.25221424674436        1.12873172878629
N            5.24019526386483       -2.49851140254880       -0.34581311137051
F            5.11544340874873       -2.17484360371219       -1.99147752820396
N            6.11265492662515       -1.74583029087230        0.18915867690639
N            7.47277627699251       -1.95995539278000        0.11770615429995
N            7.98431565068804       -2.83587365240709       -1.05580671945963
O            7.27698405374081       -3.72720516309898       -1.27384638892534
O            9.02850072333654       -2.49306975504314       -1.46032306847253
C            8.10144795470044       -0.75277715906847        0.56495778312707
N            8.56551265278427       -0.98340598870589        2.11146788263002
O            8.11581843102876       -1.93538971463171        2.64226480720736
O            9.24803713156365       -0.08943438251019        2.51112549930408
N            9.23507449513586       -0.27529607308890       -0.16881675559698
N           10.55190337575840       -0.89529587335167        0.05927770986788
O           11.44030531524349       -0.34644760391663       -0.46588743065763
O           10.47996926774065       -1.87250909476843        0.72223907661819
