42
 energy: -128.142838786325 gnorm: 0.000739955255 xtb: 6.7.1 (edcfbbe)
C            2.61102697698009       -0.42183268048981        0.33574727190972
N            3.68156112959101       -0.74010878471615        1.41809991869890
O            3.69518876075447       -1.84491478456410        1.85719489329658
O            4.35995178219682        0.19902957837736        1.69711386285628
N            3.21046365407595        0.47896381513252       -0.62522609189349
N            3.14137001262812        1.95219754694809       -0.24809101290742
O            3.74181081918809        2.65326037074602       -0.96449144956537
O            2.46544248931060        2.15878757375708        0.69531319735903
N            3.94030927107308        0.34688394817776       -1.70232633516184
N            4.22806097532744       -0.58156432961489       -2.42008443869661
C            3.99369491432056       -1.97651751697217       -2.52968398605714
N            5.24229882311381       -2.77546511476888       -2.40729299987934
N            6.47909446564353       -2.34844290193337       -2.07730979527326
N            6.66871291892446       -1.45220888560895       -0.91252706659062
O            5.64590171870367       -1.23475758370873       -0.33590935929908
O            7.76008738563617       -1.06683548438484       -0.72749217035517
N            7.58139115971400       -3.06356352965257       -2.33778798982709
N            7.65546598955601       -4.13211144599073       -2.89010178311826
C            6.75269409317989       -5.04229793979272       -3.49932986144713
N            7.33890688698016       -6.36345443781658       -3.13799302146537
F            6.64991706251499       -7.31888119087489       -3.86611704052506
F            8.59812518376834       -6.41657467694818       -3.66353241991268
N            5.32415747473057       -5.12774946271880       -3.18840762979118
N            4.40413841378602       -5.46771785989553       -4.21483609245564
O            3.26165924812558       -5.43715863779983       -3.88278702216927
O            4.87728821917276       -5.64098148740675       -5.29196483213642
N            4.75442155611036       -5.02481688261593       -1.94344231476333
F            5.57983683966684       -5.70034940271592       -1.01676474981400
N            4.61428557162240       -3.72729556261210       -1.50414029815025
C            3.30030558862877       -3.09783417144989       -1.66989903392792
N            2.74130790603435       -2.73702673461324       -0.39747936792077
N            2.29349397907024       -3.81599018620072        0.47145347401768
O            2.74960165317592       -4.87090716285484        0.20828503340121
O            1.53381178274957       -3.46750502797591        1.31023102656958
N            2.06276588581309       -1.58061641057463       -0.27142582296760
N            0.68659354099475       -1.56476322517373       -0.69547242712664
O            0.11765507825349       -0.54049136495698       -0.50624189188222
O            0.33396216270209       -2.57656339148950       -1.20721421795241
H            1.81146796360014        0.14168491525597        0.85147988679428
H            3.64360557872624       -2.06923546963898       -3.57095233148900
H            6.80620264615953       -4.88498844975318       -4.59361703741887
H            2.60709891792628       -3.71844231109978       -2.25287261925250
