45
energy: -150.189809016783 gnorm: 0.000641048083 xtb: 6.7.1 (edcfbbe)
N      5.3617188698   -0.1742222417   -3.0549129785
N     -0.0175134817   -4.1787579588   -0.5887125666
N      0.8022875323   -5.0584070469   -0.3977736876
F      2.7615328931    3.2276869403   -0.1564059195
C      1.7886370344   -4.8866436601    0.7144353069
N      1.8118648364   -6.3380261659    1.1038474136
O      0.6972126735   -6.8036969613    1.6074964419
O      2.9895106095   -6.7989509761    1.4308472652
N      1.6180669903   -4.0438790208    1.9793915629
O      0.3328725833   -3.9817983209    2.4315884599
O      2.6513404030   -4.1477894176    2.8636627885
N      3.0597778208   -4.4881010517    0.0305747931
F      1.4705648940   -3.2989389639    3.0442709117
N      3.1401396375   -3.2494247604   -0.2561309429
C      5.9246277066   -1.2931451143   -0.1163321645
N      7.1949987905   -1.9002859131   -0.6111873798
O      8.2440731848   -1.1507309859   -0.4044189433
O      7.2222606944   -3.2044466590   -0.5638645946
N      4.7379552935   -1.6237681076   -0.9812475900
O      5.0192307206   -1.3750117844   -2.3895655842
O      4.4014762501   -3.0185089914   -0.8276204995
N      5.7560258720    0.1714375379   -0.3697346297
N      5.6527857232    1.2076467779   -1.2134342035
C      5.2715918240    2.5459257353   -0.6732793367
N      5.9769361860    2.8237369522    0.6215228595
O      7.2653441733    2.6047335960    0.5863604105
O      5.4480852195    3.8050939864    1.3011445452
N      5.7203505331   -1.3365549176    1.3918187227
O      6.5749890701   -0.5453687042    2.1083984033
O      5.3996580624   -2.5728259123    1.8721206584
N      5.7577212855    3.5868190469   -1.6151595718
N      5.0798434950    4.7288553260   -1.7189113081
F      5.4288048976   -1.3026209047    2.6688750153
C      5.1708733078    5.8995140154   -2.2722387737
N      4.4634568781    6.7213611789   -2.5468911673
O      4.7571828319    7.9422817482   -2.1877350532
O      3.4907881936    6.3978144781   -3.3542325067
N      3.7523030924    2.4411724108   -0.4976616399
O      3.3191096667    1.7087585943    0.5705530472
O      3.0041300015    2.5885131901   -1.6296361372
N      6.2000006761    5.5985440078   -1.9678635085
C      7.2646384671    6.3910893672   -1.4896996765
N      8.0869033819    6.9281865033   -0.9131399671
N      6.0534413735    4.5121781764   -2.1357581810
N      5.5858251484    0.7507074890   -2.2264606070