74
 energy: -232.922585791368 gnorm: 0.000825743253 xtb: 6.7.1 (edcfbbe)
N            3.72327682261193        2.23251814763948       -2.68945199456048
N            3.27321898763538        3.59801244892535       -2.98878799076097
N            3.76007252993054        4.03700433371323       -4.21984234824421
H            4.72599507535769        3.75299106171949       -4.38326692276498
H            3.16741932775131        3.68262456896688       -4.96181695665133
C            3.74617453446819        4.41595785833775       -1.89734728848710
F            2.82444824060467        4.26850443810647       -0.85141834489592
N            3.90799112335301        5.74720251242958       -2.19990821831530
H            4.05367697362398        5.92010331151268       -3.18349533216063
H            4.52056120162968        6.25397276829335       -1.58053645790986
N            4.96377618198619        3.67208496149734       -1.44074594127992
F            5.30723092956079        4.04000151705692       -0.15027744358938
N            4.42139739689179        2.34123403741065       -1.44744036885011
N            4.77704404622414        1.28285216772366       -0.88077843210260
F            6.14819309770036        0.70151566063492       -1.41848847102326
C            4.49584756660993        0.91110362691718        0.47612602833977
N            4.34352302909735        2.08095633286350        1.28284881847659
H            3.60149728318684        2.71633151377254        0.98720704679714
F            4.04806506199924        1.76300265291344        2.60377974126545
N            5.59197507550138        0.06104650028299        0.92453395536606
F            6.83875376682395        0.75270349085062        0.87377277952145
N            5.46766098554751       -0.80839440227774        1.84466754025803
F            5.60673947232893       -0.26948714476190        3.22620941113270
C            6.08894519973165       -2.12897244199794        1.81549256142587
N            7.50255816897571       -1.98370677243174        1.45472776805686
F            8.18353697274141       -1.48090648841771        2.52414843622647
F            8.08716838388408       -3.20081031485454        1.21402673786535
N            5.93259400804614       -2.63419222549844        3.15487802738323
F            6.86331841411296       -3.82468058183307        3.27310300753414
N            4.81041432324258       -2.79580449455590        3.75861636672490
N            4.78525832995991       -2.62737355832890        5.12415650793572
F            4.51608936645710       -1.25047521142977        5.40508319947883
C            3.59907835078570       -3.35287939711327        5.56135593740416
F            3.01719889441129       -2.77711339012069        6.60293371896714
N            4.03566784684943       -4.81082333314878        6.06406150632077
O            3.69900267318438       -5.69479818922718        5.33941373474936
O            4.61888897949190       -4.82990351841331        7.09329394316249
N            2.77801380424583       -3.46890217369649        4.39430006652573
N            1.38935712277262       -2.86085294630180        4.28604642001270
O            0.77121600631756       -2.99560973916606        5.26985723757741
O            1.16443253773603       -2.39265505305610        3.24201340409265
N            3.56934382962378       -3.40778111330525        3.27065011855988
N            3.79263257244390       -4.76575382435007        2.75872659452145
N            2.56808568066083       -5.41697305933750        2.21641356133588
O            2.80009515837352       -6.24785243187582        1.42059243539629
O            1.56885060272087       -5.05530670030027        2.72562471397405
N            4.98365466146652       -4.93833645916176        2.11780432046364
N            5.79427348229582       -5.99636911301457        2.45301606480415
F            5.91853560034878       -6.01930309676593        3.81879420537412
F            5.14850163501118       -7.19392291383520        2.21782953952693
N            5.33654640177698       -4.38590898215476        0.95283979038302
F            4.76128482017135       -5.10070133691785       -0.15620072576610
C            5.33958566096791       -2.98414213449120        0.65135337348266
N            6.18412155337539       -2.94415724348522       -0.55971540651436
F            6.51740129375322       -1.65656841357684       -0.87084363170303
F            5.47542970062288       -3.34816451549933       -1.65183478339770
N            4.00791088102622       -2.36072110977311        0.53397263031193
F            2.91732296862872       -3.45095763856568        0.57221941772719
N            3.74172379613050       -1.34209407633497       -0.12417821457187
F            3.79048484814029       -1.34898958285082       -1.57257821414885
C            3.17750069065684       -0.10050888491407        0.38017347463528
N            2.40940538246701       -0.44829933642157        1.59619423822469
F            1.78232738707225        0.68506501991259        2.03720205550799
F            3.16168644177781       -0.81677912960579        2.67731645189850
N            2.09374422509584        0.42936718750132       -0.38711288895933
F            1.28359079596416       -0.79396647860794       -0.84179463027364
N            2.07792188485523        1.42213233643552       -1.24006318667817
N            0.88837524369303        2.14097851715613       -1.32449672840660
H            0.70964717334488        2.63752418535454       -0.45951565342787
H            0.09948631994834        1.54120932498452       -1.55683705688659
N            2.74630453998224        1.24518061819898       -2.47707540356049
N            1.92145038995332        0.96501139490711       -3.53276746544512
H            2.38138455352418        0.35174699713837       -4.19232300330960
H            1.50615562156992        1.78437941149846       -3.96864038143584
