74
energy: -258.574865669227 gnorm: 0.000814201945 xtb: 6.7.1 (edcfbbe)
N      3.3605494636    2.1457755603   -2.4951369187
N      3.3045743009    3.5043342559   -3.0296335672
N      3.3906607961    3.4041603871   -4.4864399211
O      4.3106874145    2.8252226224   -5.2045042168
O      2.3225839336    4.0012553001   -4.9329108084
C      4.2879049025    4.3932648594   -2.3660329277
F      3.2211745207    4.7913619845   -1.6299275572
N      4.6060790994    5.6814205698   -3.0577059126
O      5.3290134909    5.5287454963   -4.1322957588
O      4.7944804345    6.6788785153   -2.2332990019
N      4.6257934779    2.9917532970   -2.0000287331
F      5.6864346463    3.7364542256   -1.3272654387
N      4.6112565180    1.6505309456   -1.9381851713
N      5.1824053512    1.2230260546   -0.8202754383
F      5.7444637166    0.3970157859   -1.8668609271
C      4.7592057064    1.0392905981    0.5998931559
N      4.6408437462    2.4125679338    1.2297364026
O      3.7499698322    3.2154781368    0.7267722763
O      5.0227445265    2.5198562219    2.4704004524
N      5.9493510307    0.2375194905    1.0883537748
F      7.1067814264    1.1096278749    1.1743999273
N      5.7477413609   -0.4672122637    2.1317781826
F      5.9887563231    0.2265521882    3.3834139540
C      6.1030701447   -1.9341564021    2.0092953473
N      7.6059032708   -2.1484168052    2.0400558224
O      8.3265020109   -1.2058157900    2.5865135089
O      8.0312543773   -3.3692380853    1.8767957986
N      5.4981764400   -2.4819381592    3.2858698677
F      6.4038555256   -2.1461763188    4.3753559696
N      4.4868292949   -3.2312295108    3.7587531925
N      4.1412056204   -3.1809098681    5.0504656999
F      4.6065320676   -2.4172115331    6.1960775505
C      2.9433378375   -3.9031044981    5.5412255571
F      2.1482813162   -3.1153365204    6.3006745549
N      3.3894423850   -5.1042385913    6.3094039835
O      3.8056624758   -6.1132182719    5.5936620747
O      3.8558986072   -4.8233585710    7.4964236792
N      2.4195502341   -4.2503211499    4.1957571319
N      1.2069200634   -3.5527520557    3.7678305918
O      0.3540033559   -4.4624477909    4.1475092948
O      0.9477422092   -2.5824736358    2.9382226570
N      3.4242122503   -4.0423858824    3.1555584251
N      3.9435359459   -5.3447045264    2.7117908113
N      2.8623829694   -6.0840731735    2.0532607608
O      3.2090630126   -7.3171473452    2.2982020613
O      1.7979194706   -5.7294330875    1.3887370037
N      4.9609866344   -5.1132311674    1.6832853457
N      6.0956140866   -5.9328634585    2.1671047062
O      6.6492086433   -5.4878448175    3.2639319972
O      6.4686671391   -7.0244396437    1.5593662500
N      5.4762762068   -4.1010697398    0.9667066176
F      5.3838003796   -5.0928976849   -0.0986334237
C      5.3846717200   -2.6058716931    0.7342622344
N      6.1432401018   -2.4978466145   -0.5785618650
O      7.1977624419   -1.7339257229   -0.6339038961
O      5.5256501480   -2.9361180428   -1.6430023664
N      3.9165895300   -2.1762961043    0.6586244565
F      3.0614482612   -3.2921119989    0.2973515666
N      3.6903086225   -1.1384334239   -0.0652853398
F      3.1097417695   -1.4425683769   -1.3551623385
C      3.3982700179    0.1863840483    0.6345204567
N      2.7403201265    0.2506763736    2.0085999029
O      2.2279604663    1.3887268549    2.3979350895
O      3.0260045485   -0.7014648680    2.8475132169
N      2.2630490804    0.8099405101   -0.1929956320
F      0.9687562789    0.1933090829    0.0906750528
N      1.5897946598    1.9060952589   -0.6134044584
N      0.7609265811    3.0230318823   -1.0746169658
O      0.6356207928    3.1600365799    0.2167321086
O      0.0295593250    3.6527522270   -1.9509689138
N      2.1468592376    1.5171873936   -1.9403245650
N      1.2784167283    0.8412246813   -2.9215479380
O      1.0681496310   -0.4409489754   -2.8381840058
O      0.7261944458    1.5957148254   -3.8291079439