57
 energy: -187.310211937839 gnorm: 0.000841895173 xtb: 6.7.1 (edcfbbe)
C            2.27990658563558        2.19661631507842        0.14505344840948
N            0.96271985756044        2.78146230966075       -0.41267242350868
O            0.90240537680639        3.96895756333066       -0.39609890212331
O            0.13659241361230        1.97925211427732       -0.72447197905839
N            2.16446435832499        2.61843835222678        1.70892177654589
O            3.20518494627508        2.79662260194373        2.25614320658987
O            1.05549296727354        2.69672278558314        2.10936823810631
N            3.40853608412770        2.91322493190267       -0.41504384838539
N            3.42229709851972        3.24771045268634       -1.88074685990907
O            4.45157736919254        3.68006935696291       -2.23321793682920
O            2.39936737974180        3.04117317167032       -2.43005853805256
N            4.65306328077743        2.56380753197408        0.03288762361706
N            5.32666101908376        3.45090101358694        1.03674132822408
O            4.94371648637928        4.55903791943220        1.04085633045958
O            6.20673691438942        2.88820342132569        1.59218305862350
N            4.79671812229279        1.22513438242020        0.03232465985264
N            5.96744671150069        0.40826005780316        0.01203216327490
N            7.29581927557267        0.86706486185092        0.07357924265740
N            7.81007684861456        1.13557966623097       -1.31556042320612
O            8.97057005170305        0.93250677625216       -1.42700712497768
O            6.98531915027271        1.54839115666076       -2.04183570032710
N            8.01713515942169        0.12351903501336        0.92841356114647
F            8.97690648317597        0.84402272306693        1.61150226427464
N            8.53731472793256       -1.11124877040140        0.49054735335517
N           10.09344136728222       -1.27027664472716       -0.24560094885943
O           10.81400077962336       -0.45289107018697        0.12339405771382
O           10.07041235457962       -2.20675362677295       -0.91405866358364
N            7.76393722091899       -1.98686324733750        0.02183450849883
F            7.20917751794159       -1.39569043889100       -1.46428492554587
C            6.60729144162341       -2.55697810404130        0.62882400097244
C            7.09808985091516       -3.28668663146916        1.79399505791703
N            7.47494685785713       -3.84756973109423        2.71029393684234
C            5.62572829587281       -3.41604672880318       -0.30426356513169
C            5.27975500984512       -4.70065247156402        0.27462415221660
N            5.00862503111548       -5.71603078934611        0.71374777196820
N            5.71741909863823       -3.45799266566848       -1.73240824375241
N            6.95637713855130       -3.72874139656633       -2.40711937739073
O            7.72517323010446       -4.34351423426989       -1.74490758310755
O            6.99497466863964       -3.36349205803078       -3.52955047695212
N            4.96970873683276       -2.33829137708916       -2.20469018511866
N            4.18175445891472       -2.55596845927097       -3.56460832659872
O            4.25730575181699       -3.65774044886176       -3.92803142206709
O            3.71455261337214       -1.56704245114215       -3.94383996118962
N            4.32437779235971       -1.74916763278388       -1.23577437478737
F            2.67671642470087       -2.33221869677141       -1.42897017834035
N            4.63559467415271       -2.34006595119029       -0.09246327390618
N            5.39687668233634       -1.75439512764789        0.94281924751947
C            5.44618278656607       -0.36020494743949        1.17224351934075
C            6.09009111453316       -0.16857477536052        2.48369108324010
N            6.52013500448104       -0.01814513910922        3.52820445541965
N            4.23748439774856        0.46372978738210        1.13358757495274
N            2.96007093104165       -0.00497367571881        0.86743955622979
F            2.31322736607464        0.11164812649444        2.31395429893306
N            2.29831849103953        0.77544987833981        0.05032780826733
N            1.25072799533172       -0.16706641554759       -0.97307492309252
O            0.60677016478676       -0.84704170951840       -0.32372888895684
O            1.49783608220546        0.09089912348209       -2.06192623041553
